c Random generated cnf formula, satisfiable: true
p cnf 10 50
4 10 -2 0
3 -4 -10 0
10 -7 2 0
8 -5 6 0
-3 -6 7 0
6 2 8 0
-4 2 10 0
-2 9 -10 0
-1 -7 5 0
2 -3 -1 0
7 -4 5 0
7 4 3 0
8 -7 6 0
9 -1 7 0
6 -10 -5 0
1 10 6 0
-3 -7 -1 0
-4 3 10 0
-6 -10 8 0
4 2 -10 0
-9 8 5 0
-2 -7 1 0
6 7 3 0
-4 8 -7 0
-1 -5 6 0
-5 -8 1 0
-1 6 4 0
-4 10 -2 0
-9 10 -4 0
-9 2 5 0
8 -9 -5 0
-6 -7 2 0
9 -6 1 0
-5 8 4 0
4 -9 1 0
-5 2 4 0
-3 4 6 0
-6 -1 -4 0
4 -5 -8 0
4 7 6 0
5 4 -1 0
-6 -1 -2 0
9 3 6 0
9 4 -10 0
3 10 -8 0
-9 -1 -5 0
2 -4 10 0
1 4 -7 0
2 10 7 0
-8 3 2 0
